\ENCODING=ISO-8859-1
\Problem name: IloCplex

Minimize
 obj: x21 + x22 + x23 + x24
Subject To
 c1:  x1 + 2 x2 + 10 x3 + 4 x4 - Rgc1  = 0
 c2:  9 x5 + 4 x6 + 3 x7 + x8 - Rgc2  = 0
 c3:  5 x9 + 6 x10 + 7 x11 + 8 x12 - Rgc3  = 0
 c4:  1000000 x1 + x13 >= 6
 c5:  1000000 x2 + x14 >= 7
 c6:  1000000 x3 + x15 >= 15
 c7:  1000000 x4 + x16 >= 9
 c8:  1000000 x5 + x17 >= 19
 c9:  1000000 x6 + x18 >= 14
 c10: 1000000 x7 + x19 >= 13
 c11: 1000000 x8 + x20 >= 11
 c12: 1000000 x9 + x21 >= 14
 c13: 1000000 x10 + x22 >= 15
 c14: 1000000 x11 + x23 >= 16
 c15: 1000000 x12 + x24 >= 17
 c16: - x13 + x14 - 1000000 x25 >= -999998
 c17: - x13 + x15 - 1000000 x26 >= -999990
 c18: - x13 + x16 - 1000000 x27 >= -999996
 c19: x13 - x14 - 1000000 x28 >= -999999
 c20: - x14 + x15 - 1000000 x29 >= -999990
 c21: - x14 + x16 - 1000000 x30 >= -999996
 c22: x13 - x15 - 1000000 x31 >= -999999
 c23: x14 - x15 - 1000000 x32 >= -999998
 c24: - x15 + x16 - 1000000 x33 >= -999996
 c25: x13 - x16 - 1000000 x34 >= -999999
 c26: x14 - x16 - 1000000 x35 >= -999998
 c27: x15 - x16 - 1000000 x36 >= -999990
 c28: - x17 + x18 - 1000000 x37 >= -999996
 c29: - x17 + x19 - 1000000 x38 >= -999997
 c30: - x17 + x20 - 1000000 x39 >= -999999
 c31: x17 - x18 - 1000000 x40 >= -999991
 c32: - x18 + x19 - 1000000 x41 >= -999997
 c33: - x18 + x20 - 1000000 x42 >= -999999
 c34: x17 - x19 - 1000000 x43 >= -999991
 c35: x18 - x19 - 1000000 x44 >= -999996
 c36: - x19 + x20 - 1000000 x45 >= -999999
 c37: x17 - x20 - 1000000 x46 >= -999991
 c38: x18 - x20 - 1000000 x47 >= -999996
 c39: x19 - x20 - 1000000 x48 >= -999997
 c40: - x21 + x22 - 1000000 x37 >= -999994
 c41: - x21 + x23 - 1000000 x38 >= -999993
 c42: - x21 + x24 - 1000000 x39 >= -999992
 c43: x21 - x22 - 1000000 x40 >= -999995
 c44: - x22 + x23 - 1000000 x41 >= -999993
 c45: - x22 + x24 - 1000000 x42 >= -999992
 c46: x21 - x23 - 1000000 x43 >= -999995
 c47: x22 - x23 - 1000000 x44 >= -999994
 c48: - x23 + x24 - 1000000 x45 >= -999992
 c49: x21 - x24 - 1000000 x46 >= -999995
 c50: x22 - x24 - 1000000 x47 >= -999994
 c51: x23 - x24 - 1000000 x48 >= -999993
 c52: - x13 + x17 >= 9
 c53: - x14 + x18 >= 4
 c54: - x15 + x19 >= 3
 c55: - x16 + x20 >= 1
 c56: - x17 + x21 >= 5
 c57: - x18 + x22 >= 6
 c58: - x19 + x23 >= 7
 c59: - x20 + x24 >= 8
 c60: x25 + x28  = 1
 c61: x49 + x50  = 1
 c62: x37 + x40  = 1
 c63: x26 + x31  = 1
 c64: x51 + x52  = 1
 c65: x38 + x43  = 1
 c66: x27 + x34  = 1
 c67: x53 + x54  = 1
 c68: x39 + x46  = 1
 c69: x29 + x32  = 1
 c70: x55 + x56  = 1
 c71: x41 + x44  = 1
 c72: x30 + x35  = 1
 c73: x57 + x58  = 1
 c74: x42 + x47  = 1
 c75: x33 + x36  = 1
 c76: x59 + x60  = 1
 c77: x45 + x48  = 1
Bounds
 0 <= x1 <= 1
 0 <= x2 <= 1
 0 <= x3 <= 1
 0 <= x4 <= 1
 0 <= x5 <= 1
 0 <= x6 <= 1
 0 <= x7 <= 1
 0 <= x8 <= 1
 0 <= x9 <= 1
 0 <= x10 <= 1
 0 <= x11 <= 1
 0 <= x12 <= 1
      x13 >= 0
      x14 >= 0
      x15 >= 0
      x16 >= 0
      x17 >= 0
      x18 >= 0
      x19 >= 0
      x20 >= 0
      x21 >= 0
      x22 >= 0
      x23 >= 0
      x24 >= 0
 0 <= x25 <= 1
 0 <= x26 <= 1
 0 <= x27 <= 1
 0 <= x28 <= 1
 0 <= x29 <= 1
 0 <= x30 <= 1
 0 <= x31 <= 1
 0 <= x32 <= 1
 0 <= x33 <= 1
 0 <= x34 <= 1
 0 <= x35 <= 1
 0 <= x36 <= 1
 0 <= x37 <= 1
 0 <= x38 <= 1
 0 <= x39 <= 1
 0 <= x40 <= 1
 0 <= x41 <= 1
 0 <= x42 <= 1
 0 <= x43 <= 1
 0 <= x44 <= 1
 0 <= x45 <= 1
 0 <= x46 <= 1
 0 <= x47 <= 1
 0 <= x48 <= 1
 0 <= x49 <= 1
 0 <= x50 <= 1
 0 <= x51 <= 1
 0 <= x52 <= 1
 0 <= x53 <= 1
 0 <= x54 <= 1
 0 <= x55 <= 1
 0 <= x56 <= 1
 0 <= x57 <= 1
 0 <= x58 <= 1
 0 <= x59 <= 1
 0 <= x60 <= 1
 0 <= Rgc1 <= 3
 0 <= Rgc2 <= 8
 0 <= Rgc3 <= 5
Binaries
 x1  x2  x3  x4  x5  x6  x7  x8  x9  x10  x11  x12  x25  x26  x27  x28  x29 
 x30  x31  x32  x33  x34  x35  x36  x37  x38  x39  x40  x41  x42  x43  x44 
 x45  x46  x47  x48  x49  x50  x51  x52  x53  x54  x55  x56  x57  x58  x59 
 x60 
Generals
 x13  x14  x15  x16  x17  x18  x19  x20  x21  x22  x23  x24 
End
